objective value:                 0.000971467507999996
x_1_2                                               1 	(obj:0)
x_2_2                                               1 	(obj:0)
x_3_4                                               1 	(obj:0)
x_4_1                                               1 	(obj:0)
x_5_2                                               1 	(obj:0)
x_6_4                                               1 	(obj:0)
x_7_1                                               1 	(obj:0)
x_8_1                                               1 	(obj:0)
x_9_4                                               1 	(obj:0)
x_10_4                                              1 	(obj:0)
x_11_2                                              1 	(obj:0)
x_12_2                                              1 	(obj:0)
x_13_4                                              1 	(obj:0)
x_14_1                                              1 	(obj:0)
x_15_1                                              1 	(obj:0)
x_16_4                                              1 	(obj:0)
x_17_2                                              1 	(obj:0)
x_18_1                                              1 	(obj:0)
x_19_2                                              1 	(obj:0)
x_20_4                                              1 	(obj:0)
x_21_2                                              1 	(obj:0)
x_22_4                                              1 	(obj:0)
x_23_1                                              1 	(obj:0)
x_24_2                                              1 	(obj:0)
x_25_4                                              1 	(obj:0)
x_26_4                                              1 	(obj:0)
x_27_2                                              1 	(obj:0)
x_28_2                                              1 	(obj:0)
x_29_2                                              1 	(obj:0)
x_30_1                                              1 	(obj:0)
x_31_4                                              1 	(obj:0)
x_32_1                                              1 	(obj:0)
x_33_1                                              1 	(obj:0)
x_34_2                                              1 	(obj:0)
x_35_1                                              1 	(obj:0)
x_36_4                                              1 	(obj:0)
x_37_1                                              1 	(obj:0)
x_38_4                                              1 	(obj:0)
x_39_4                                              1 	(obj:0)
x_40_2                                              1 	(obj:0)
ind_1                                               1 	(obj:0)
abs_1_4                                             1 	(obj:0)
ind_2                                               1 	(obj:0)
abs_2_1                                             1 	(obj:0)
ind_4                                               1 	(obj:0)
abs_4_2                                             1 	(obj:0)
epsI                             0.000971467507999996 	(obj:1)
SCIP Status        : solving was interrupted [time limit reached]
Total Time         :    3600.01
  solving          :    3600.00
  presolving       :       0.42 (included in solving)
  reading          :       0.01
  copying          :       0.00 (0 times copied the problem)
Original Problem   :
  Problem name     : ../instances/Pot6Cycle/Pot6Cycle_T_40B_1t.txt.spa
  Variables        : 181 (180 binary, 0 integer, 0 implicit integer, 1 continuous)
  Constraints      : 333 initial, 333 maximal
  Objective sense  : maximize
Presolved Problem  :
  Problem name     : t_../instances/Pot6Cycle/Pot6Cycle_T_40B_1t.txt.spa
  Variables        : 1230 (172 binary, 0 integer, 16 implicit integer, 1042 continuous)
  Constraints      : 4315 initial, 4322 maximal
Presolvers         :   ExecTime  SetupTime  Calls  FixedVars   AggrVars   ChgTypes  ChgBounds   AddHoles    DelCons    AddCons   ChgSides   ChgCoefs
  boundshift       :       0.00       0.00      0          0          0          0          0          0          0          0          0          0
  components       :       0.01       0.00      1          0          0          0          0          0          0          0          0          0
  convertinttobin  :       0.00       0.00      0          0          0          0          0          0          0          0          0          0
  domcol           :       0.01       0.00      1          0          0          0          0          0          0          0          0          0
  dualagg          :       0.00       0.00      0          0          0          0          0          0          0          0          0          0
  dualinfer        :       0.00       0.00      0          0          0          0          0          0          0          0          0          0
  gateextraction   :       0.00       0.00      3          0          0          0          0          0        108         34          0          0
  implfree         :       0.00       0.00      0          0          0          0          0          0          0          0          0          0
  implics          :       0.00       0.00      4          0          0          0          0          0          0          0          0          0
  inttobinary      :       0.00       0.00      0          0          0          0          0          0          0          0          0          0
  redvub           :       0.00       0.00      0          0          0          0          0          0          0          0          0          0
  stuffing         :       0.01       0.00      1          0          0          0          0          0          0          0          0          0
  trivial          :       0.00       0.00      7          0          0          0          0          0          0          0          0          0
  tworowbnd        :       0.00       0.00      0          0          0          0          0          0          0          0          0          0
  dualfix          :       0.00       0.00      7          4          0          0          0          0          0          0          0          0
  genvbounds       :       0.00       0.00      0          0          0          0          0          0          0          0          0          0
  probing          :       0.27       0.00      1          0          0          0          0          0          0          0          0          0
  pseudoobj        :       0.00       0.00      0          0          0          0          0          0          0          0          0          0
  varbound         :       0.00       0.00      9          0          0          0          0          0         28         28          0          0
  setppc           :       0.01       0.00     12          0          0          0          0          0          0          0          0          0
  and              :       0.00       0.00      4          0         12          0          0          0         12          0          0          0
  linear           :       0.05       0.01      9          3          1          0          4          0          7          0         12         12
  logicor          :       0.00       0.00      7          0          0          0          0          0          0          0          0          0
  bounddisjunction :       0.00       0.00      0          0          0          0          0          0          0          0          0          0
  quadratic        :       0.06       0.00      2          0          0          0          0          0          0       4075          0          0
  root node        :          -          -      -          1          -          -         36          -          -          -          -          -
Constraints        :     Number  MaxNumber  #Separate #Propagate    #EnfoLP    #EnfoPS     #Check   #ResProp    Cutoffs    DomReds       Cuts    Applied      Conss   Children
  integral         :          0          0          0          0    1059364          0     134987          0          0      35786          0          0          1    1663520
  varbound         :       1909       1909         44    4497064     225406          0      47949     194434       2128   14254416          0          0          0          0
  setppc           :        210        210         44    4494933     225406          0      30342     369475       3931    1117187          6          0          0          0
  and              :         22         22        814      57975       3496          0      30327       7904          4       1585       1771       1758          0          0
  linear           :       2099       2099         44    4491001     223658          0      29634     214956       3511   45481573   24134397   24133934          0          0
  logicor          :         75+        84          3     319092          0          0          0       8688          2        258          0          0          0          0
  bounddisjunction :          0+        43          0     705415          0          0          0       2227         20     134965          0          0          0          0
  countsols        :          0          0          0          0          0          0      87016          0          0          0          0          0          0          0
Constraint Timings :  TotalTime  SetupTime   Separate  Propagate     EnfoLP     EnfoPS      Check    ResProp    SB-Prop
  integral         :      26.67       0.00       0.00       0.00      26.66       0.00       0.01       0.00       0.00
  varbound         :      20.47       0.00       0.00      14.10       3.65       0.00       2.61       0.03       0.08
  setppc           :      31.95       0.00       0.00      31.55       0.07       0.00       0.08       0.09       0.16
  and              :       0.05       0.00       0.00       0.01       0.00       0.00       0.02       0.02       0.00
  linear           :     165.80       0.01       0.02     135.85      28.71       0.00       0.67       0.22       0.32
  logicor          :       0.21       0.00       0.00       0.21       0.00       0.00       0.00       0.00       0.00
  bounddisjunction :       0.41       0.00       0.00       0.40       0.00       0.00       0.00       0.01       0.00
  countsols        :       0.00       0.00       0.00       0.00       0.00       0.00       0.00       0.00       0.00
Propagators        : #Propagate   #ResProp    Cutoffs    DomReds
  dualfix          :          2          0          0          0
  genvbounds       :          0          0          0          0
  obbt             :          0          0          0          0
  probing          :          0          0          0          0
  pseudoobj        :    4038800          0          0         35
  redcost          :    2012582          0         58      30685
  rootredcost      :          1          0          0          0
  vbounds          :    5423805         11          0       5542
Propagator Timings :  TotalTime  SetupTime   Presolve  Propagate    ResProp    SB-Prop
  dualfix          :       0.00       0.00       0.00       0.00       0.00       0.00
  genvbounds       :       0.52       0.00       0.00       0.52       0.00       0.00
  obbt             :       0.00       0.00       0.00       0.00       0.00       0.00
  probing          :       0.27       0.00       0.27       0.00       0.00       0.00
  pseudoobj        :       1.18       0.00       0.00       1.18       0.00       0.00
  redcost          :       8.52       0.00       0.00       8.51       0.00       0.01
  rootredcost      :       0.83       0.00       0.00       0.83       0.00       0.00
  vbounds          :       1.04       0.00       0.00       1.04       0.00       0.00
Conflict Analysis  :       Time      Calls    Success    DomReds  Conflicts   Literals    Reconvs ReconvLits   LP Iters
  propagation      :       1.67       6085       6085          -     197628       85.0        494      100.6          -
  infeasible LP    :       4.61      32457          0          -          0        0.0          0        0.0          0
  bound exceed. LP :       0.00          0          0          -          0        0.0          0        0.0          0
  strong branching :       0.00          0          0          -          0        0.0          0        0.0          0
  pseudo solution  :       0.00          0          0          -          0        0.0          0        0.0          -
  applied globally :       0.01          -          -          0        658       15.4          -          -          -
  applied locally  :          -          -          -          0       5577       39.6          -          -          -
Separators         :   ExecTime  SetupTime      Calls    Cutoffs    DomReds       Cuts    Applied      Conss
  cut pool         :       0.00                    42          -          -       1063          -          -    (maximal pool size: 641)
  cgmip            :       0.00       0.00          0          0          0          0          0          0
  clique           :       0.01       0.00         43          0          0         53         42          0
  closecuts        :       0.00       0.00          0          0          0          0          0          0
  cmir             :       0.02       0.00         10          0          0         72         20          0
  disjunctive      :       0.00       0.00          0          0          0          0          0          0
  eccuts           :       0.00       0.00          0          0          0          0          0          0
  flowcover        :       0.86       0.00         15          0          0        288         53          0
  gomory           :       0.17       0.00         10          0          0          0          0          0
  impliedbounds    :       0.00       0.00         43          0          0        706        110          0
  intobj           :       0.00       0.00          0          0          0          0          0          0
  mcf              :       0.00       0.00          1          0          0          0          0          0
  oddcycle         :       0.00       0.00          0          0          0          0          0          0
  rapidlearning    :       0.00       0.00          0          0          0          0          0          0
  strongcg         :       0.39       0.00         20          0          0          3          2          0
  zerohalf         :       0.00       0.00          0          0          0          0          0          0
Pricers            :   ExecTime  SetupTime      Calls       Vars
  problem variables:       0.00          -          0          0
Branching Rules    :   ExecTime  SetupTime   BranchLP  BranchExt   BranchPS    Cutoffs    DomReds       Cuts      Conss   Children
  allfullstrong    :       0.00       0.00          0          0          0          0          0          0          0          0
  cloud            :       0.00       0.00          0          0          0          0          0          0          0          0
  distribution     :       0.00       0.00          0          0          0          0          0          0          0          0
  fullstrong       :       0.00       0.00          0          0          0          0          0          0          0          0
  inference        :       0.00       0.00          0          0          0          0          0          0          0          0
  leastinf         :       0.00       0.00          0          0          0          0          0          0          0          0
  mostinf          :       0.00       0.00          0          0          0          0          0          0          0          0
  multaggr         :       0.00       0.00          0          0          0          0          0          0          0          0
  nodereopt        :       0.00       0.00          0          0          0          0          0          0          0          0
  pscost           :       0.00       0.00          0          0          0          0          0          0          0          0
  random           :       0.00       0.00          0          0          0          0          0          0          0          0
  relpscost        :      26.18       0.00     833958          0          0          0      35786          0          0    1663520
Primal Heuristics  :   ExecTime  SetupTime      Calls      Found       Best
  LP solutions     :       0.00          -          -          0          -
  pseudo solutions :       0.00          -          -          0          -
  strong branching :       0.00          -          -          0          -
  SpaGreedy        :     221.11       0.00      87015          2          1
  actconsdiving    :       0.00       0.00          0          0          0
  bound            :       0.00       0.00          0          0          0
  clique           :       0.00       0.00          0          0          0
  coefdiving       :      58.09       0.00      10986          0          0
  crossover        :       0.15       0.00          0          0          0
  dins             :       0.00       0.00          0          0          0
  distributiondivin:      80.15       0.00      10986          0          0
  dualval          :       0.00       0.00          0          0          0
  feaspump         :      13.37       0.00       5489          0          0
  fixandinfer      :       0.00       0.00          0          0          0
  fracdiving       :      58.22       0.00      10986          0          0
  guideddiving     :       0.01       0.00          0          0          0
  indicator        :       0.10       0.00          0          0          0
  intdiving        :       0.00       0.00          0          0          0
  intshifting      :       2.32       0.00        303          0          0
  linesearchdiving :      64.53       0.00      10985          0          0
  localbranching   :       0.00       0.00          0          0          0
  mutation         :       0.00       0.00          0          0          0
  nlpdiving        :       0.02       0.00          0          0          0
  objpscostdiving  :      44.07       0.00       5492          0          0
  octane           :       0.00       0.00          0          0          0
  ofins            :       0.00       0.00          0          0          0
  oneopt           :       0.16       0.00          0          0          0
  proximity        :       0.00       0.00          0          0          0
  pscostdiving     :      56.48       0.00      10986          0          0
  randrounding     :       0.87       0.00      17453          0          0
  rens             :       0.00       0.00          0          0          0
  reoptsols        :       0.00       0.00          0          0          0
  rins             :       0.28       0.00          0          0          0
  rootsoldiving    :      50.81       0.00       5079          0          0
  rounding         :       0.74       0.00      12810          0          0
  shiftandpropagate:       0.00       0.00          0          0          0
  shifting         :       2.51       0.00       4013          0          0
  simplerounding   :       0.09       0.00          0          0          0
  subnlp           :       0.23       0.00          0          0          0
  trivial          :       0.00       0.00          2          0          0
  trivialnegation  :       0.00       0.00          0          0          0
  trysol           :       0.16       0.00          0          0          0
  twoopt           :       0.00       0.00          0          0          0
  undercover       :       0.00       0.00          1          0          0
  vbounds          :       0.00       0.00          0          0          0
  veclendiving     :      64.25       0.00      10985          0          0
  zeroobj          :       0.00       0.00          0          0          0
  zirounding       :       0.21       0.00       1000          0          0
  other solutions  :          -          -          -          0          -
Diving Statistics  :      Calls      Nodes   LP Iters Backtracks   MinDepth   MaxDepth   AvgDepth  NLeafSols  MinSolDpt  MaxSolDpt  AvgSolDpt
  actconsdiving    :          0          -          -          -          -          -          -          -          -          -          -
  coefdiving       :      10986      80763     904129       9223         26        100       38.9          -          -          -          -
  distributiondivin:      10986      68120     959328       9271         21         70       37.9          -          -          -          -
  fracdiving       :      10986      79680     980313       9347         25         95       38.9          -          -          -          -
  guideddiving     :          0          -          -          -          -          -          -          -          -          -          -
  linesearchdiving :      10985      88551    1158582       8622         20         64       38.7          -          -          -          -
  pscostdiving     :      10986      71859     865068       9493         21         95       38.3          -          -          -          -
  veclendiving     :      10985      84872    1077469       9443         24         53       38.9          -          -          -          -
LP                 :       Time      Calls Iterations  Iter/call   Iter/sec  Time-0-It Calls-0-It
  primal LP        :       0.00          6          0       0.00          -       0.00          6
  dual LP          :    2014.26    1418006   57908783      42.11   28749.41      11.49      42819
  lex dual LP      :       0.00          0          0       0.00          -
  barrier LP       :       0.00          0          0       0.00          -       0.00          0
  diving/probing LP:     308.28     252127    7517870      29.82   24386.50
  strong branching :      16.00       2936     228322      77.77   14270.12
    (at root node) :          -         24       4230     176.25          -
  conflict analysis:       0.00          0          0       0.00          -
B&B Tree           :
  number of runs   :          1
  nodes            :    1104243 (831760 internal, 272483 leaves)
  nodes (total)    :    1104243 (831760 internal, 272483 leaves)
  nodes left       :     559278
  max depth        :         42
  max depth (total):         42
  backtracks       :     217610 (19.7%)
  delayed cutoffs  :          0
  repropagations   :        766 (5526 domain reductions, 0 cutoffs)
  avg switch length:       5.23
  switching time   :     309.14
Root Node          :
  First LP value   : +3.00000000000000e+00
  First LP Iters   :        847 (42350.00 Iter/sec)
  First LP Time    :       0.02
  Final Dual Bound : +1.05837337034006e-01
  Final Root Iters :       4392
Solution           :
  Solutions found  :          2 (1 improvements)
  First Solution   : +9.71467507999996e-04   (in run 1, after 1 nodes, 0.43 seconds, depth 0, found by <SpaGreedy>)
  Gap First Sol.   :   infinite
  Gap Last Sol.    :   infinite
  Primal Bound     : +9.71467507999996e-04   (in run 1, after 1 nodes, 0.43 seconds, depth 0, found by <SpaGreedy>)
  Dual Bound       : +3.34080303653014e-03
  Gap              :     243.89 %
  Avg. Gap         :      99.08 % (356697.85 primal-dual integral)
